17,2	0,0	8,4	12,8	0,0	0,0	0,0	0,0	0,0	6,9
18,1	8,1	0,0	12,1	6,1	0,0	0,0	16,4	0,0	0,0
0,0	0,0	9,8	0,0	13,9	14,0	0,0	0,0	10,7	0,0
11,6	0,0	11,5	0,0	0,0	0,0	12,1	0,0	0,0	0,0
0,0	11,0	0,0	17,0	17,3	0,0	0,0	12,1	0,0	0,0
0,0	7,5	17,9	0,0	10,1	11,8	0,0	0,0	12,2	0,0
0,0	14,7	0,0	16,3	0,0	0,0	13,1	0,0	0,0	10,1
11,9	0,0	5,8	0,0	0,0	0,0	0,0	0,0	0,0	13,5
0,0	14,8	0,0	15,2	16,2	0,0	0,0	12,3	0,0	0,0
0,0	0,0	11,2	0,0	0,0	14,2	18,0	0,0	0,0	10,5
0,0	20,0	0,0	0,0	18,6	0,0	9,1	0,0	8,6	9,7
13,3	0,0	12,0	0,0	6,0	0,0	17,2	7,7	19,8	0,0
0,0	15,1	0,0	0,0	0,0	9,1	0,0	7,6	19,1	12,7
9,0	6,0	10,0	0,0	0,0	9,5	0,0	16,5	11,2	0,0
17,0	0,0	7,6	0,0	10,4	10,6	14,3	5,6	0,0	0,0
0,0	5,4	0,0	19,3	0,0	9,6	0,0	16,9	0,0	0,0
17,3	0,0	14,7	19,6	16,3	0,0	0,0	8,2	0,0	0,0
0,0	0,0	12,8	0,0	0,0	16,5	18,8	0,0	12,2	19,4
18,8	0,0	0,0	18,7	17,1	19,7	10,3	12,2	0,0	18,9
0,0	9,0	0,0	19,8	0,0	0,0	18,2	0,0	7,5	6,2
									
4,7	4,7	4,4	2,7	2,7	3,4	3,3	3,2	4,2	3,9
